c description: Random 3-CNF over 12 variables and 36 clauses
p cnf 12 36
5 8 -11 0
-3 -7 8 0
-5 10 -12 0
2 6 7 0
-2 4 -10 0
3 7 -12 0
-1 7 8 0
3 4 -5 0
1 -3 -4 0
2 9 11 0
-8 10 11 0
3 -9 -10 0
-9 10 -11 0
2 -7 -10 0
1 8 12 0
-1 3 -9 0
-1 -6 9 0
3 7 10 0
9 -11 12 0
4 -9 -12 0
1 -7 12 0
-4 -11 -12 0
1 2 7 0
4 7 -11 0
3 -4 -10 0
2 6 -7 0
3 8 -10 0
-6 -9 12 0
-1 7 -9 0
-3 4 5 0
1 -8 12 0
-3 -10 -11 0
-2 -10 11 0
-1 10 11 0
-2 -4 9 0
-5 -6 -9 0